sing20210113.12
TTAA 63121 48698
99007 26434 04011 00088 25639 02508 92767 20018 03027
85495 16620 02022 70134 09025 33505 50586 04916 07508
40758 15317 06519 30970 29720 11530 25097 40132 12022
20245 53339 12037 15423 69345 10042 10654 83358 09080
88104 85545 09582
77102 09089 430//=
TTCC 63125 48698
70861 69769 30014 50059 71570 24517
88775 78361 13014
77999=
TTDD 6312/ 48698
11976 77161 22926 71567 33775 78361 44698 69369 55558
73766 66412 65176 77381 67974
21212 11930 10023 22850 09519 33806 14014 44742 11510
55729 17001 66711 29510 77685 31016 88658 27522 99620
27043 11567 27032 22519 24524 33489 23510 44485 24009
55438 32010 66424 29516 77402 32013 88381 30514=
